<number of tasks>
250

<cycle time>
1000

<order strength>
0.597


<task times>
1 496
2 419
3 180
4 192
5 321
6 118
7 498
8 383
9 22
10 320
11 577
12 477
13 548
14 119
15 54
16 475
17 178
18 144
19 129
20 189
21 46
22 273
23 62
24 571
25 135
26 153
27 449
28 492
29 214
30 214
31 257
32 121
33 117
34 271
35 126
36 477
37 123
38 21
39 112
40 571
41 218
42 211
43 151
44 478
45 597
46 155
47 82
48 167
49 203
50 26
51 440
52 435
53 118
54 189
55 321
56 373
57 547
58 57
59 75
60 209
61 93
62 225
63 583
64 205
65 83
66 129
67 147
68 531
69 138
70 246
71 525
72 503
73 440
74 22
75 73
76 181
77 52
78 285
79 256
80 453
81 412
82 54
83 149
84 262
85 359
86 141
87 366
88 111
89 274
90 183
91 200
92 579
93 258
94 390
95 30
96 29
97 71
98 100
99 29
100 101
101 405
102 59
103 412
104 40
105 128
106 100
107 89
108 264
109 163
110 225
111 365
112 39
113 186
114 287
115 224
116 208
117 338
118 80
119 270
120 176
121 30
122 331
123 464
124 415
125 502
126 49
127 76
128 28
129 119
130 104
131 196
132 512
133 401
134 180
135 265
136 404
137 159
138 126
139 116
140 298
141 193
142 284
143 82
144 218
145 164
146 395
147 500
148 328
149 153
150 36
151 253
152 119
153 215
154 87
155 74
156 57
157 345
158 139
159 88
160 190
161 244
162 87
163 165
164 72
165 211
166 124
167 446
168 532
169 57
170 190
171 105
172 470
173 405
174 251
175 445
176 565
177 544
178 493
179 453
180 82
181 523
182 167
183 321
184 153
185 527
186 38
187 109
188 84
189 513
190 25
191 306
192 165
193 255
194 82
195 26
196 128
197 219
198 123
199 149
200 250
201 114
202 515
203 47
204 182
205 151
206 169
207 138
208 75
209 488
210 493
211 479
212 200
213 309
214 83
215 156
216 451
217 49
218 41
219 265
220 251
221 22
222 52
223 134
224 64
225 451
226 70
227 244
228 191
229 73
230 540
231 96
232 108
233 175
234 284
235 563
236 64
237 212
238 199
239 76
240 60
241 532
242 106
243 103
244 256
245 136
246 152
247 581
248 257
249 430
250 21

<precedence relations>
1,131
2,131
3,108
4,23
5,23
6,23
7,23
8,189
9,217
10,11
10,12
10,13
10,14
10,15
10,16
10,17
10,18
10,19
11,108
12,168
13,23
14,23
15,23
16,23
17,52
18,25
19,20
19,21
19,22
19,23
19,24
19,26
19,27
20,108
21,228
22,168
23,28
23,29
23,30
23,31
23,32
23,34
23,35
24,52
25,42
25,43
25,44
25,45
26,33
26,38
26,94
26,103
26,125
27,34
27,52
28,217
29,213
30,36
30,37
30,38
30,39
31,37
31,40
31,49
31,58
32,217
33,175
34,175
35,36
35,39
36,168
37,168
38,189
39,40
39,41
39,42
39,43
39,44
39,45
40,52
41,52
41,59
42,46
42,47
42,48
42,49
43,46
43,47
43,48
43,49
44,46
44,47
44,57
44,59
45,46
45,47
46,162
47,52
48,50
48,51
48,52
48,55
48,56
48,58
49,53
49,54
49,57
49,59
49,73
50,131
51,128
52,60
52,61
52,62
52,63
52,64
52,65
52,66
52,67
52,68
52,69
52,70
52,71
52,72
53,175
54,175
55,60
55,72
55,73
55,111
55,120
56,60
56,72
56,78
57,60
57,79
57,96
57,112
58,60
58,72
58,73
58,74
58,111
59,60
59,72
59,80
59,86
60,228
61,73
61,74
61,91
61,120
62,78
62,165
62,168
63,73
63,75
64,76
64,77
64,84
64,127
64,129
64,130
65,78
65,80
65,107
65,138
65,151
66,81
66,85
67,73
67,86
67,87
68,73
68,74
68,76
68,110
68,120
69,73
69,74
69,75
69,120
70,75
70,80
70,81
70,82
71,79
71,89
71,93
72,119
72,139
73,108
74,228
75,168
76,128
77,213
78,175
79,82
79,85
79,92
79,98
80,84
80,105
81,83
81,86
81,87
82,108
83,108
84,168
85,245
86,213
87,88
87,89
87,90
87,91
87,92
87,93
88,228
89,168
90,245
91,162
92,175
93,94
93,95
93,96
93,97
93,98
93,99
94,168
95,217
96,162
97,213
98,101
98,103
98,104
98,106
99,100
99,102
99,105
99,111
100,108
101,108
102,228
103,168
104,107
104,109
104,129
104,139
104,151
104,154
105,112
105,125
105,126
105,132
106,110
106,111
106,113
106,153
107,131
108,114
108,115
108,116
108,117
108,118
108,119
108,121
108,122
108,123
108,124
109,228
110,228
111,128
112,120
112,121
112,161
113,119
113,120
113,138
114,176
114,188
115,125
115,129
116,138
116,155
116,158
116,167
117,157
117,163
118,127
118,206
119,128
120,213
121,129
121,154
122,157
123,125
123,126
123,127
123,130
124,125
124,128
125,131
126,131
127,228
128,131
128,133
128,134
128,135
128,136
128,137
128,140
129,162
130,132
130,138
130,139
130,156
130,160
131,141
131,142
131,143
131,144
131,145
131,146
131,147
131,148
131,149
131,150
131,152
132,168
133,189
134,213
135,151
135,167
136,151
136,154
136,157
136,165
137,152
138,176
138,193
138,212
139,153
140,154
141,175
142,164
143,157
144,207
145,163
145,166
146,165
147,160
148,155
148,159
149,156
150,157
151,168
152,245
153,157
153,158
153,159
154,158
155,168
156,162
157,175
158,163
158,164
158,166
158,177
159,161
159,165
159,175
160,167
161,168
162,169
162,170
162,171
162,172
162,173
162,174
163,175
164,175
165,169
165,177
166,169
166,202
167,176
167,189
167,191
168,178
168,179
168,180
168,181
169,217
171,187
172,227
174,215
175,182
175,183
175,184
175,185
175,186
176,190
176,208
177,205
178,189
179,193
181,209
181,213
182,216
183,209
184,188
184,189
185,190
186,191
186,210
186,217
187,189
187,190
188,228
189,193
189,194
189,195
189,196
189,197
189,198
189,199
189,200
189,201
189,202
190,246
191,192
191,193
192,228
193,228
194,245
195,208
196,203
196,204
199,237
201,205
202,211
203,228
204,207
204,209
204,210
205,206
205,208
205,214
206,228
207,213
208,213
209,211
209,212
209,214
209,215
211,228
212,217
213,218
213,219
213,220
213,221
213,222
213,223
213,224
213,225
213,226
213,227
214,216
215,227
216,228
217,229
217,230
217,231
217,232
217,233
217,234
217,235
217,236
217,238
218,238
222,237
226,228
227,246
228,239
228,240
228,241
228,242
228,243
228,244
229,245
232,246
237,245
245,247
245,248
245,249
245,250

<end>
